c generated by sgen
p cnf 109 228
-2 -3 -4 0
-1 -3 -4 0
-1 -2 -4 0
-1 -2 -3 0
-6 -7 -8 0
-5 -7 -8 0
-5 -6 -8 0
-5 -6 -7 0
-10 -11 -12 0
-9 -11 -12 0
-9 -10 -12 0
-9 -10 -11 0
-14 -15 -16 0
-13 -15 -16 0
-13 -14 -16 0
-13 -14 -15 0
-18 -19 -20 0
-17 -19 -20 0
-17 -18 -20 0
-17 -18 -19 0
-22 -23 -24 0
-21 -23 -24 0
-21 -22 -24 0
-21 -22 -23 0
-26 -27 -28 0
-25 -27 -28 0
-25 -26 -28 0
-25 -26 -27 0
-30 -31 -32 0
-29 -31 -32 0
-29 -30 -32 0
-29 -30 -31 0
-34 -35 -36 0
-33 -35 -36 0
-33 -34 -36 0
-33 -34 -35 0
-38 -39 -40 0
-37 -39 -40 0
-37 -38 -40 0
-37 -38 -39 0
-42 -43 -44 0
-41 -43 -44 0
-41 -42 -44 0
-41 -42 -43 0
-46 -47 -48 0
-45 -47 -48 0
-45 -46 -48 0
-45 -46 -47 0
-50 -51 -52 0
-49 -51 -52 0
-49 -50 -52 0
-49 -50 -51 0
-54 -55 -56 0
-53 -55 -56 0
-53 -54 -56 0
-53 -54 -55 0
-58 -59 -60 0
-57 -59 -60 0
-57 -58 -60 0
-57 -58 -59 0
-62 -63 -64 0
-61 -63 -64 0
-61 -62 -64 0
-61 -62 -63 0
-66 -67 -68 0
-65 -67 -68 0
-65 -66 -68 0
-65 -66 -67 0
-70 -71 -72 0
-69 -71 -72 0
-69 -70 -72 0
-69 -70 -71 0
-74 -75 -76 0
-73 -75 -76 0
-73 -74 -76 0
-73 -74 -75 0
-78 -79 -80 0
-77 -79 -80 0
-77 -78 -80 0
-77 -78 -79 0
-82 -83 -84 0
-81 -83 -84 0
-81 -82 -84 0
-81 -82 -83 0
-86 -87 -88 0
-85 -87 -88 0
-85 -86 -88 0
-85 -86 -87 0
-90 -91 -92 0
-89 -91 -92 0
-89 -90 -92 0
-89 -90 -91 0
-94 -95 -96 0
-93 -95 -96 0
-93 -94 -96 0
-93 -94 -95 0
-98 -99 -100 0
-97 -99 -100 0
-97 -98 -100 0
-97 -98 -99 0
-102 -103 -104 0
-101 -103 -104 0
-101 -102 -104 0
-101 -102 -103 0
-105 -106 -107 0
-105 -106 -108 0
-105 -106 -109 0
-105 -107 -108 0
-105 -107 -109 0
-105 -108 -109 0
-106 -107 -108 0
-106 -107 -109 0
-106 -108 -109 0
-107 -108 -109 0
103 42 22 0
33 42 22 0
33 103 22 0
33 103 42 0
99 85 37 0
96 85 37 0
96 99 37 0
96 99 85 0
35 25 20 0
86 25 20 0
86 35 20 0
86 35 25 0
14 2 40 0
81 2 40 0
81 14 40 0
81 14 2 0
88 24 4 0
72 24 4 0
72 88 4 0
72 88 24 0
13 49 23 0
59 49 23 0
59 13 23 0
59 13 49 0
3 11 66 0
55 11 66 0
55 3 66 0
55 3 11 0
8 80 16 0
56 80 16 0
56 8 16 0
56 8 80 0
102 1 91 0
107 1 91 0
107 102 91 0
107 102 1 0
106 93 52 0
71 93 52 0
71 106 52 0
71 106 93 0
78 57 89 0
69 57 89 0
69 78 89 0
69 78 57 0
30 38 109 0
75 38 109 0
75 30 109 0
75 30 38 0
84 60 12 0
101 60 12 0
101 84 12 0
101 84 60 0
98 31 70 0
5 31 70 0
5 98 70 0
5 98 31 0
46 83 108 0
28 83 108 0
28 46 108 0
28 46 83 0
43 53 26 0
92 53 26 0
92 43 26 0
92 43 53 0
7 67 45 0
19 67 45 0
19 7 45 0
19 7 67 0
82 100 73 0
54 100 73 0
54 82 73 0
54 82 100 0
104 87 48 0
63 87 48 0
63 104 48 0
63 104 87 0
79 36 65 0
105 36 65 0
105 79 65 0
105 79 36 0
21 10 97 0
17 10 97 0
17 21 97 0
17 21 10 0
51 6 62 0
90 6 62 0
90 51 62 0
90 51 6 0
61 39 18 0
58 39 18 0
58 61 18 0
58 61 39 0
77 32 95 0
44 32 95 0
44 77 95 0
44 77 32 0
15 41 74 0
47 41 74 0
47 15 74 0
47 15 41 0
29 50 9 0
27 50 9 0
27 29 9 0
27 29 50 0
76 34 64 0
76 34 94 0
76 34 68 0
76 64 94 0
76 64 68 0
76 94 68 0
34 64 94 0
34 64 68 0
34 94 68 0
64 94 68 0
